Maximize
   20 o1 + 10 o2 + 25 o3 + 11 o4 + 5 o5 + 50 o6 + 15 o7 
   + 12 o8 + 6 o9 + 5 o10 + 4 o11 + 30 o12
Subject To
    c1: 11 o1 + 7 o2 + 5 o3 + 5 o4 + 4 o5 + 3 o6 + 3 o7 
    + 2 o8 + 2 o9 + 2 o10 + 2 o11 + 1 o12 <= 20
Binary 
    o1 o2 o3 o4 o5 o6 o7 o8 o9 o10 o11 o12
End